1	52	186
2	145	124
3	8	146
4	114	127
5	49	65
6	170	129
7	172	4
8	17	103
9	199	61
10	34	134
11	104	86
12	75	169
13	42	108
14	116	185
15	188	149
16	85	20
17	101	159
18	17	199
19	3	41
20	117	11
